NAME : djc1785
COMMENT : Bonn VLSI data set with 1785 points
COMMENT : Uni Bonn, Research Institute for Discrete Math
COMMENT : Contributed by Andre Rohe
TYPE : TSP
DIMENSION : 1785
EDGE_WEIGHT_TYPE : EUC_2D
NODE_COORD_SECTION
1 0 101
2 0 11
3 0 111
4 0 121
5 0 131
6 0 141
7 0 151
8 0 154
9 0 161
10 0 171
11 0 181
12 0 191
13 0 201
14 0 21
15 0 31
16 0 38
17 0 41
18 0 48
19 0 51
20 0 61
21 0 71
22 0 81
23 0 91
24 2 123
25 2 124
26 2 128
27 2 129
28 2 13
29 2 132
30 2 133
31 2 134
32 2 139
33 2 141
34 2 144
35 2 15
36 2 155
37 2 157
38 2 159
39 2 161
40 2 164
41 2 17
42 2 178
43 2 180
44 2 181
45 2 183
46 2 184
47 2 185
48 2 187
49 2 188
50 2 189
51 2 19
52 2 191
53 2 193
54 2 194
55 2 195
56 2 197
57 2 199
58 2 20
59 2 200
60 2 23
61 2 25
62 2 28
63 2 29
64 2 31
65 2 32
66 2 35
67 2 37
68 2 39
69 2 42
70 2 44
71 2 47
72 2 70
73 2 71
74 2 81
75 2 82
76 2 84
77 2 96
78 2 97
79 2 98
80 2 99
81 3 126
82 3 85
83 5 156
84 5 160
85 5 168
86 5 171
87 5 175
88 5 180
89 5 182
90 5 19
91 5 192
92 5 201
93 5 203
94 5 205
95 5 21
96 5 212
97 5 24
98 5 28
99 5 32
100 5 38
101 5 43
102 5 47
103 5 8
104 8 197
105 8 29
106 9 115
107 9 154
108 9 17
109 9 178
110 9 197
111 9 22
112 9 29
113 9 32
114 9 36
115 9 41
116 10 143
117 10 154
118 10 17
119 10 178
120 10 181
121 10 191
122 10 198
123 10 20
124 10 200
125 10 22
126 10 30
127 10 34
128 10 36
129 10 41
130 10 46
131 11 115
132 11 143
133 11 154
134 11 166
135 11 169
136 11 17
137 11 178
138 11 181
139 11 191
140 11 197
141 11 20
142 11 200
143 11 202
144 11 22
145 11 29
146 11 36
147 11 41
148 11 46
149 11 49
150 11 9
151 12 5
152 15 182
153 15 192
154 15 199
155 15 201
156 15 203
157 15 205
158 15 21
159 15 31
160 15 35
161 15 47
162 15 8
163 17 123
164 17 129
165 17 132
166 17 139
167 17 141
168 17 164
169 17 184
170 17 185
171 17 188
172 17 189
173 17 194
174 17 195
175 17 70
176 17 96
177 17 98
178 18 127
179 18 133
180 18 69
181 18 80
182 18 86
183 18 99
184 25 102
185 25 103
186 25 104
187 25 110
188 25 113
189 25 115
190 25 117
191 25 119
192 25 122
193 25 130
194 25 16
195 25 18
196 25 181
197 25 184
198 25 186
199 25 188
200 25 190
201 25 192
202 25 194
203 25 196
204 25 197
205 25 24
206 25 28
207 25 48
208 25 51
209 25 52
210 25 55
211 25 56
212 25 60
213 25 61
214 25 64
215 25 65
216 25 66
217 25 71
218 25 80
219 25 81
220 25 85
221 25 86
222 25 89
223 25 90
224 25 91
225 25 96
226 26 58
227 26 83
228 28 109
229 28 11
230 28 111
231 28 114
232 28 118
233 28 131
234 28 136
235 28 144
236 28 152
237 28 160
238 28 168
239 28 176
240 28 182
241 28 185
242 28 189
243 28 193
244 28 198
245 28 201
246 28 205
247 28 21
248 28 24
249 28 26
250 28 29
251 28 34
252 28 42
253 28 48
254 28 50
255 28 7
256 31 132
257 31 138
258 31 146
259 31 154
260 31 162
261 31 170
262 31 178
263 31 194
264 31 30
265 31 36
266 31 44
267 32 112
268 32 132
269 32 138
270 32 146
271 32 154
272 32 162
273 32 170
274 32 178
275 32 183
276 32 194
277 32 30
278 32 36
279 32 44
280 33 110
281 33 112
282 33 121
283 33 130
284 33 132
285 33 138
286 33 146
287 33 154
288 33 162
289 33 170
290 33 178
291 33 181
292 33 183
293 33 192
294 33 195
295 33 197
296 33 23
297 33 28
298 33 30
299 33 36
300 33 44
301 33 47
302 33 73
303 34 110
304 34 112
305 34 12
306 34 121
307 34 130
308 34 132
309 34 139
310 34 147
311 34 155
312 34 163
313 34 171
314 34 179
315 34 181
316 34 183
317 34 192
318 34 194
319 34 197
320 34 199
321 34 20
322 34 23
323 34 28
324 34 30
325 34 37
326 34 45
327 34 47
328 34 5
329 34 98
330 35 106
331 35 132
332 35 30
333 35 8
334 38 0
335 38 109
336 38 11
337 38 111
338 38 131
339 38 182
340 38 193
341 38 196
342 38 198
343 38 21
344 38 212
345 38 24
346 38 26
347 38 29
348 38 48
349 38 50
350 40 103
351 40 104
352 40 52
353 40 55
354 40 61
355 40 64
356 40 71
357 40 80
358 40 86
359 40 89
360 40 96
361 41 134
362 41 136
363 41 138
364 41 142
365 41 144
366 41 146
367 41 150
368 41 152
369 41 154
370 41 158
371 41 160
372 41 162
373 41 166
374 41 168
375 41 170
376 41 174
377 41 176
378 41 178
379 41 31
380 41 32
381 41 34
382 41 35
383 41 39
384 41 40
385 41 42
386 41 44
387 41 59
388 41 65
389 41 84
390 41 90
391 48 105
392 48 106
393 48 11
394 48 110
395 48 111
396 48 115
397 48 116
398 48 12
399 48 121
400 48 132
401 48 133
402 48 137
403 48 138
404 48 142
405 48 143
406 48 148
407 48 157
408 48 159
409 48 16
410 48 161
411 48 164
412 48 166
413 48 168
414 48 17
415 48 170
416 48 173
417 48 175
418 48 177
419 48 178
420 48 179
421 48 180
422 48 183
423 48 187
424 48 194
425 48 196
426 48 20
427 48 21
428 48 22
429 48 27
430 48 29
431 48 32
432 48 33
433 48 37
434 48 38
435 48 42
436 48 43
437 48 48
438 48 57
439 48 58
440 48 62
441 48 63
442 48 67
443 48 68
444 48 73
445 48 82
446 48 83
447 48 87
448 48 88
449 48 91
450 48 92
451 48 93
452 48 98
453 49 108
454 49 135
455 49 14
456 49 35
457 49 60
458 49 85
459 51 130
460 51 157
461 51 159
462 51 161
463 51 165
464 51 169
465 51 177
466 51 183
467 51 185
468 51 187
469 51 189
470 51 199
471 51 202
472 51 204
473 51 7
474 55 163
475 55 175
476 56 100
477 56 123
478 56 150
479 56 156
480 56 163
481 56 175
482 56 182
483 56 186
484 56 50
485 56 75
486 57 129
487 57 156
488 57 163
489 57 175
490 57 182
491 57 186
492 57 190
493 57 198
494 57 201
495 57 5
496 61 130
497 61 157
498 61 159
499 61 161
500 61 183
501 61 185
502 61 187
503 61 189
504 61 199
505 61 202
506 61 204
507 63 105
508 63 11
509 63 111
510 63 121
511 63 132
512 63 138
513 63 148
514 63 17
515 63 173
516 63 179
517 63 180
518 63 20
519 63 27
520 63 29
521 63 32
522 63 38
523 63 48
524 63 57
525 63 63
526 63 73
527 63 82
528 63 88
529 63 91
530 63 98
531 64 109
532 64 115
533 64 136
534 64 142
535 64 15
536 64 21
537 64 36
538 64 42
539 64 61
540 64 67
541 64 86
542 64 92
543 67 0
544 71 116
545 71 118
546 71 151
547 71 181
548 71 186
549 71 188
550 71 189
551 71 197
552 71 26
553 74 103
554 74 106
555 74 110
556 74 114
557 74 116
558 74 118
559 74 13
560 74 157
561 74 161
562 74 167
563 74 175
564 74 189
565 74 19
566 74 192
567 74 194
568 74 23
569 74 39
570 74 45
571 74 58
572 74 63
573 74 68
574 74 74
575 74 8
576 74 80
577 74 85
578 74 91
579 74 95
580 74 99
581 77 186
582 77 5
583 77 55
584 78 154
585 78 157
586 78 16
587 78 161
588 78 186
589 78 189
590 78 19
591 78 23
592 78 92
593 78 95
594 78 99
595 79 115
596 79 155
597 79 159
598 79 17
599 79 187
600 79 21
601 79 25
602 79 93
603 79 97
604 80 101
605 80 104
606 80 115
607 80 149
608 80 186
609 80 191
610 80 203
611 80 25
612 80 50
613 80 66
614 81 111
615 81 163
616 81 36
617 81 71
618 81 82
619 84 114
620 84 116
621 84 118
622 84 13
623 84 156
624 84 160
625 84 18
626 84 188
627 84 192
628 84 194
629 84 22
630 84 39
631 84 45
632 84 58
633 84 63
634 84 74
635 84 8
636 84 80
637 84 85
638 84 91
639 84 94
640 84 98
641 85 212
642 86 151
643 86 197
644 87 181
645 94 101
646 94 103
647 94 108
648 94 109
649 94 12
650 94 132
651 94 134
652 94 135
653 94 14
654 94 146
655 94 148
656 94 151
657 94 158
658 94 166
659 94 168
660 94 170
661 94 172
662 94 174
663 94 176
664 94 178
665 94 180
666 94 186
667 94 188
668 94 189
669 94 19
670 94 192
671 94 193
672 94 196
673 94 197
674 94 20
675 94 200
676 94 28
677 94 44
678 94 64
679 97 106
680 97 125
681 97 131
682 97 135
683 97 139
684 97 143
685 97 147
686 97 164
687 97 167
688 97 17
689 97 171
690 97 175
691 97 180
692 97 182
693 97 184
694 97 189
695 97 193
696 97 197
697 97 204
698 97 206
699 97 23
700 97 25
701 97 49
702 97 51
703 97 55
704 97 59
705 97 61
706 97 64
707 97 7
708 97 80
709 97 85
710 97 91
711 97 95
712 100 132
713 100 186
714 100 77
715 101 132
716 101 135
717 101 145
718 101 165
719 101 178
720 101 186
721 101 189
722 101 193
723 101 197
724 101 88
725 101 91
726 101 95
727 102 133
728 102 145
729 102 165
730 102 178
731 102 187
732 102 191
733 102 195
734 102 199
735 102 63
736 102 89
737 102 93
738 103 105
739 103 111
740 103 132
741 103 137
742 103 145
743 103 16
744 103 163
745 103 165
746 103 178
747 103 181
748 103 186
749 103 205
750 103 22
751 103 34
752 103 48
753 103 5
754 103 53
755 103 58
756 103 63
757 103 66
758 103 8
759 103 97
760 104 122
761 104 140
762 104 201
763 107 106
764 107 125
765 107 131
766 107 134
767 107 143
768 107 164
769 107 17
770 107 182
771 107 184
772 107 188
773 107 192
774 107 196
775 107 200
776 107 204
777 107 206
778 107 23
779 107 25
780 107 49
781 107 51
782 107 59
783 107 61
784 107 64
785 107 80
786 107 85
787 107 90
788 107 94
789 109 109
790 109 151
791 109 20
792 109 28
793 110 158
794 110 44
795 117 109
796 117 111
797 117 115
798 117 117
799 117 124
800 117 126
801 117 127
802 117 130
803 117 131
804 117 132
805 117 156
806 117 158
807 117 159
808 117 162
809 117 166
810 117 167
811 117 168
812 117 169
813 117 172
814 117 173
815 117 174
816 117 175
817 117 177
818 117 18
819 117 180
820 117 182
821 117 184
822 117 185
823 117 187
824 117 189
825 117 191
826 117 192
827 117 193
828 117 199
829 117 205
830 117 27
831 117 32
832 117 79
833 117 83
834 117 88
835 117 93
836 118 212
837 119 212
838 120 10
839 120 103
840 120 115
841 120 117
842 120 121
843 120 127
844 120 14
845 120 141
846 120 146
847 120 152
848 120 159
849 120 162
850 120 164
851 120 18
852 120 181
853 120 184
854 120 186
855 120 189
856 120 198
857 120 20
858 120 200
859 120 202
860 120 212
861 120 24
862 120 30
863 120 32
864 120 34
865 120 38
866 120 43
867 120 47
868 120 49
869 120 54
870 120 59
871 120 7
872 120 74
873 120 76
874 120 83
875 120 85
876 120 89
877 120 93
878 120 95
879 120 99
880 121 212
881 122 212
882 123 124
883 123 138
884 123 156
885 123 212
886 123 35
887 123 51
888 124 103
889 124 124
890 124 127
891 124 129
892 124 149
893 124 156
894 124 159
895 124 182
896 124 187
897 124 21
898 124 212
899 124 96
900 124 99
901 125 0
902 125 101
903 125 114
904 125 125
905 125 149
906 125 157
907 125 161
908 125 17
909 125 180
910 125 182
911 125 185
912 125 187
913 125 199
914 125 21
915 125 212
916 125 31
917 125 82
918 125 88
919 125 92
920 125 97
921 126 105
922 126 114
923 126 119
924 126 124
925 126 133
926 126 149
927 126 156
928 126 161
929 126 17
930 126 180
931 126 182
932 126 185
933 126 187
934 126 192
935 126 196
936 126 199
937 126 201
938 126 21
939 126 212
940 126 31
941 126 46
942 126 5
943 126 62
944 126 73
945 126 75
946 126 8
947 126 82
948 126 88
949 126 92
950 127 149
951 127 21
952 127 212
953 128 212
954 129 212
955 130 102
956 130 115
957 130 117
958 130 126
959 130 141
960 130 146
961 130 152
962 130 158
963 130 162
964 130 164
965 130 18
966 130 181
967 130 186
968 130 20
969 130 200
970 130 202
971 130 212
972 130 24
973 130 30
974 130 32
975 130 34
976 130 38
977 130 43
978 130 47
979 130 49
980 130 54
981 130 59
982 130 74
983 130 76
984 130 83
985 130 85
986 130 89
987 130 93
988 130 95
989 130 98
990 132 205
991 132 79
992 133 150
993 133 152
994 133 153
995 133 154
996 133 166
997 133 168
998 133 169
999 133 173
1000 133 174
1001 133 175
1002 133 177
1003 133 193
1004 133 22
1005 133 23
1006 133 25
1007 133 26
1008 133 28
1009 133 29
1010 140 106
1011 140 114
1012 140 118
1013 140 120
1014 140 126
1015 140 142
1016 140 143
1017 140 144
1018 140 172
1019 140 175
1020 140 176
1021 140 177
1022 140 178
1023 140 18
1024 140 182
1025 140 184
1026 140 186
1027 140 188
1028 140 191
1029 140 192
1030 140 193
1031 140 20
1032 140 200
1033 140 204
1034 140 22
1035 140 24
1036 140 25
1037 140 28
1038 140 29
1039 140 32
1040 140 34
1041 140 36
1042 140 38
1043 140 40
1044 140 53
1045 140 61
1046 140 63
1047 140 65
1048 140 68
1049 140 72
1050 140 91
1051 143 102
1052 143 111
1053 143 118
1054 143 12
1055 143 120
1056 143 122
1057 143 132
1058 143 138
1059 143 145
1060 143 151
1061 143 164
1062 143 167
1063 143 171
1064 143 173
1065 143 183
1066 143 187
1067 143 200
1068 143 202
1069 143 25
1070 143 29
1071 143 35
1072 143 39
1073 143 44
1074 143 48
1075 143 50
1076 143 53
1077 143 58
1078 143 61
1079 143 63
1080 143 65
1081 143 68
1082 143 73
1083 143 79
1084 143 8
1085 143 85
1086 143 89
1087 143 91
1088 143 96
1089 146 103
1090 146 142
1091 146 22
1092 147 12
1093 147 129
1094 147 142
1095 147 181
1096 147 190
1097 147 22
1098 147 25
1099 147 29
1100 147 33
1101 147 5
1102 147 76
1103 147 8
1104 148 10
1105 148 117
1106 148 129
1107 148 142
1108 148 172
1109 148 181
1110 148 199
1111 148 23
1112 148 27
1113 148 31
1114 148 33
1115 148 52
1116 148 6
1117 148 60
1118 148 67
1119 148 72
1120 148 76
1121 148 90
1122 149 110
1123 149 117
1124 149 125
1125 149 129
1126 149 14
1127 149 142
1128 149 157
1129 149 162
1130 149 165
1131 149 172
1132 149 181
1133 149 194
1134 149 199
1135 149 22
1136 149 33
1137 149 42
1138 149 47
1139 149 52
1140 149 60
1141 149 67
1142 149 72
1143 149 76
1144 149 83
1145 149 90
1146 150 129
1147 150 148
1148 150 55
1149 150 76
1150 150 86
1151 150 93
1152 153 102
1153 153 11
1154 153 111
1155 153 118
1156 153 120
1157 153 122
1158 153 132
1159 153 138
1160 153 145
1161 153 151
1162 153 173
1163 153 200
1164 153 202
1165 153 24
1166 153 28
1167 153 32
1168 153 48
1169 153 50
1170 153 53
1171 153 58
1172 153 61
1173 153 63
1174 153 65
1175 153 68
1176 153 7
1177 153 73
1178 153 79
1179 153 89
1180 153 91
1181 153 96
1182 155 114
1183 155 204
1184 156 126
1185 156 130
1186 156 132
1187 156 134
1188 156 136
1189 156 138
1190 156 140
1191 156 175
1192 156 177
1193 156 178
1194 156 77
1195 156 78
1196 156 80
1197 156 81
1198 163 118
1199 163 119
1200 163 120
1201 163 126
1202 163 130
1203 163 135
1204 163 136
1205 163 137
1206 163 152
1207 163 157
1208 163 16
1209 163 161
1210 163 163
1211 163 165
1212 163 169
1213 163 172
1214 163 174
1215 163 176
1216 163 178
1217 163 18
1218 163 180
1219 163 182
1220 163 188
1221 163 190
1222 163 194
1223 163 71
1224 163 75
1225 163 77
1226 163 89
1227 163 93
1228 166 104
1229 166 107
1230 166 109
1231 166 11
1232 166 114
1233 166 129
1234 166 131
1235 166 146
1236 166 150
1237 166 155
1238 166 157
1239 166 159
1240 166 161
1241 166 163
1242 166 165
1243 166 169
1244 166 173
1245 166 177
1246 166 181
1247 166 194
1248 166 198
1249 166 202
1250 166 206
1251 166 21
1252 166 24
1253 166 26
1254 166 7
1255 166 76
1256 166 80
1257 166 82
1258 166 85
1259 166 93
1260 166 98
1261 170 117
1262 170 126
1263 170 134
1264 170 143
1265 170 146
1266 170 150
1267 170 152
1268 170 171
1269 170 199
1270 170 202
1271 170 206
1272 170 74
1273 171 126
1274 171 130
1275 171 144
1276 171 148
1277 171 152
1278 171 156
1279 171 160
1280 171 168
1281 171 171
1282 171 193
1283 171 200
1284 171 204
1285 171 74
1286 171 92
1287 172 106
1288 172 12
1289 172 121
1290 172 126
1291 172 130
1292 172 138
1293 172 152
1294 172 156
1295 172 160
1296 172 168
1297 172 171
1298 172 184
1299 172 193
1300 172 196
1301 172 20
1302 172 23
1303 172 29
1304 172 5
1305 172 69
1306 172 74
1307 172 79
1308 172 84
1309 172 88
1310 172 92
1311 173 111
1312 173 126
1313 173 152
1314 173 8
1315 173 95
1316 176 104
1317 176 107
1318 176 109
1319 176 11
1320 176 114
1321 176 129
1322 176 131
1323 176 145
1324 176 149
1325 176 155
1326 176 157
1327 176 159
1328 176 161
1329 176 163
1330 176 165
1331 176 169
1332 176 194
1333 176 201
1334 176 205
1335 176 21
1336 176 24
1337 176 26
1338 176 80
1339 176 82
1340 176 85
1341 176 93
1342 176 98
1343 177 0
1344 177 212
1345 178 71
1346 179 127
1347 179 128
1348 179 153
1349 179 154
1350 179 89
1351 186 115
1352 186 117
1353 186 12
1354 186 120
1355 186 122
1356 186 124
1357 186 126
1358 186 128
1359 186 130
1360 186 133
1361 186 134
1362 186 135
1363 186 139
1364 186 14
1365 186 148
1366 186 156
1367 186 16
1368 186 160
1369 186 162
1370 186 164
1371 186 166
1372 186 168
1373 186 169
1374 186 178
1375 186 18
1376 186 180
1377 186 186
1378 186 188
1379 186 189
1380 186 192
1381 186 193
1382 186 196
1383 186 20
1384 186 65
1385 186 69
1386 186 76
1387 186 9
1388 189 110
1389 189 116
1390 189 12
1391 189 121
1392 189 125
1393 189 129
1394 189 14
1395 189 153
1396 189 16
1397 189 160
1398 189 162
1399 189 164
1400 189 169
1401 189 174
1402 189 18
1403 189 180
1404 189 184
1405 189 189
1406 189 193
1407 189 196
1408 189 198
1409 189 20
1410 189 201
1411 189 205
1412 189 26
1413 189 34
1414 189 42
1415 189 46
1416 189 49
1417 189 52
1418 189 56
1419 189 6
1420 189 62
1421 189 68
1422 189 70
1423 189 82
1424 189 87
1425 189 95
1426 192 145
1427 192 166
1428 192 186
1429 192 22
1430 192 28
1431 192 36
1432 193 107
1433 193 114
1434 193 119
1435 193 166
1436 193 169
1437 193 171
1438 193 178
1439 193 186
1440 193 189
1441 193 193
1442 193 22
1443 193 28
1444 193 36
1445 193 39
1446 193 42
1447 193 46
1448 193 53
1449 194 107
1450 194 11
1451 194 114
1452 194 119
1453 194 138
1454 194 159
1455 194 167
1456 194 171
1457 194 178
1458 194 187
1459 194 191
1460 194 195
1461 194 22
1462 194 28
1463 194 36
1464 194 40
1465 194 44
1466 194 53
1467 194 69
1468 195 100
1469 195 107
1470 195 11
1471 195 114
1472 195 119
1473 195 134
1474 195 138
1475 195 152
1476 195 159
1477 195 166
1478 195 171
1479 195 178
1480 195 186
1481 195 195
1482 195 199
1483 195 22
1484 195 29
1485 195 37
1486 195 48
1487 195 5
1488 195 50
1489 195 53
1490 195 69
1491 195 81
1492 196 107
1493 196 171
1494 196 181
1495 196 22
1496 196 53
1497 196 83
1498 199 110
1499 199 12
1500 199 14
1501 199 153
1502 199 16
1503 199 160
1504 199 162
1505 199 164
1506 199 168
1507 199 174
1508 199 18
1509 199 184
1510 199 188
1511 199 192
1512 199 196
1513 199 198
1514 199 20
1515 199 41
1516 199 45
1517 199 49
1518 199 56
1519 199 6
1520 199 62
1521 199 68
1522 199 70
1523 199 82
1524 200 139
1525 201 156
1526 201 9
1527 202 108
1528 202 110
1529 202 111
1530 202 112
1531 202 135
1532 202 172
1533 202 174
1534 202 175
1535 202 176
1536 202 23
1537 202 24
1538 202 26
1539 202 27
1540 202 28
1541 202 31
1542 202 32
1543 202 34
1544 202 35
1545 202 36
1546 202 54
1547 202 56
1548 202 58
1549 202 60
1550 202 62
1551 202 64
1552 202 66
1553 202 67
1554 202 76
1555 203 0
1556 203 212
1557 209 100
1558 209 102
1559 209 108
1560 209 110
1561 209 113
1562 209 121
1563 209 125
1564 209 126
1565 209 127
1566 209 130
1567 209 150
1568 209 155
1569 209 159
1570 209 161
1571 209 164
1572 209 166
1573 209 187
1574 209 189
1575 209 191
1576 209 193
1577 209 196
1578 209 200
1579 209 22
1580 209 30
1581 209 32
1582 209 34
1583 209 36
1584 209 39
1585 209 40
1586 209 43
1587 209 45
1588 209 48
1589 209 52
1590 209 54
1591 209 57
1592 209 59
1593 209 6
1594 209 62
1595 209 64
1596 209 66
1597 209 69
1598 209 73
1599 209 75
1600 209 76
1601 209 78
1602 209 80
1603 209 82
1604 209 85
1605 209 92
1606 209 94
1607 209 96
1608 209 98
1609 212 0
1610 212 101
1611 212 106
1612 212 109
1613 212 113
1614 212 115
1615 212 130
1616 212 135
1617 212 141
1618 212 147
1619 212 153
1620 212 155
1621 212 157
1622 212 160
1623 212 182
1624 212 187
1625 212 189
1626 212 191
1627 212 193
1628 212 200
1629 212 203
1630 212 205
1631 212 212
1632 212 27
1633 212 31
1634 212 35
1635 212 39
1636 212 41
1637 212 44
1638 212 48
1639 212 52
1640 212 54
1641 212 58
1642 212 62
1643 212 64
1644 212 66
1645 212 72
1646 212 75
1647 212 78
1648 212 81
1649 212 86
1650 212 90
1651 212 93
1652 212 98
1653 215 68
1654 216 107
1655 216 132
1656 216 158
1657 216 179
1658 216 29
1659 216 42
1660 216 56
1661 216 68
1662 216 73
1663 216 76
1664 216 79
1665 216 91
1666 216 96
1667 216 99
1668 217 107
1669 217 112
1670 217 129
1671 217 132
1672 217 154
1673 217 158
1674 217 179
1675 217 186
1676 217 199
1677 217 29
1678 217 40
1679 217 42
1680 217 51
1681 217 56
1682 217 61
1683 217 68
1684 217 73
1685 217 76
1686 217 79
1687 217 85
1688 217 91
1689 217 96
1690 217 99
1691 218 104
1692 218 107
1693 218 112
1694 218 12
1695 218 129
1696 218 132
1697 218 154
1698 218 158
1699 218 172
1700 218 179
1701 218 186
1702 218 199
1703 218 202
1704 218 25
1705 218 29
1706 218 40
1707 218 42
1708 218 51
1709 218 56
1710 218 61
1711 218 68
1712 218 73
1713 218 76
1714 218 79
1715 218 85
1716 218 91
1717 218 96
1718 218 99
1719 219 132
1720 219 179
1721 219 68
1722 219 87
1723 222 113
1724 222 115
1725 222 130
1726 222 135
1727 222 141
1728 222 147
1729 222 153
1730 222 155
1731 222 157
1732 222 182
1733 222 187
1734 222 189
1735 222 191
1736 222 193
1737 222 200
1738 222 203
1739 222 205
1740 222 41
1741 222 52
1742 222 54
1743 222 62
1744 222 64
1745 222 66
1746 222 86
1747 222 90
1748 224 126
1749 224 127
1750 224 164
1751 224 166
1752 224 196
1753 224 6
1754 225 121
1755 225 133
1756 225 135
1757 225 137
1758 225 139
1759 225 141
1760 225 143
1761 225 145
1762 225 147
1763 225 149
1764 225 151
1765 225 152
1766 225 180
1767 225 182
1768 225 183
1769 225 184
1770 225 22
1771 225 70
1772 225 71
1773 226 212
1774 237 0
1775 237 212
1776 249 11
1777 249 111
1778 249 131
1779 249 151
1780 249 171
1781 249 191
1782 249 31
1783 249 51
1784 249 71
1785 249 91
EOF
